(set-info :origin "driver benchmark extracted from Microsoft SDV")
(set-logic HORN)
(declare-fun Proc25 (Int Int Int Int Bool Int Bool Int Int Int Int) Bool)
(declare-fun Proc20 (Int Int Int Int Bool Int Int Int Int Bool Int) Bool)
(declare-fun Proc0 (Int Int Int Int Bool Int Int) Bool)
(declare-fun Proc7 (Int Int Int Int Bool Int Int Int Int) Bool)
(declare-fun Proc24 (Int Int Int Int Bool) Bool)
(declare-fun Proc19 (Int Int Int Int Bool Int Int Int Int) Bool)
(declare-fun Proc9 (Int Int Int Int Bool Int Int) Bool)
(declare-fun Proc17 (Int Int Int Int Bool Int Int Int) Bool)
(declare-fun Proc12 (Int Int Int Int Bool) Bool)
(declare-fun Proc5 (Int Int Int Int Bool Int Int Int Int Int Int Int) Bool)
(declare-fun Proc6 (Int Int Int Int Bool Int Int Int Int) Bool)
(declare-fun Proc10 (Int Int Int Int Bool Int Int Int) Bool)
(declare-fun Proc16 (Int Int Int Int Bool) Bool)
(declare-fun Proc11 (Int Int Int Int Bool Int) Bool)
(declare-fun Proc18 (Int Int Int Int Bool Int) Bool)
(declare-fun Proc13 (Int Int Int Int Bool) Bool)
(declare-fun Proc14 (Int Int Int Int Bool) Bool)
(declare-fun Proc21 (Int Int Int Int Bool) Bool)
(declare-fun Proc4 (Int Int Int Int Bool Int) Bool)
(declare-fun Proc22 (Int Int Int Int Bool) Bool)
(declare-fun Proc2 (Int Int Int Int Bool Int Int) Bool)
(declare-fun Proc15 (Int Int Int Int Bool) Bool)
(declare-fun Proc8 (Int Int Int Int Bool Int Int Int) Bool)
(declare-fun Proc1
             (Int Int Int Int Bool Int Int Int Int Int Int Int Int Int Int)
             Bool)
(declare-fun Proc23 (Int Int Int Int Bool Int Int Int Int Int Int Int) Bool)
(declare-fun Proc3 (Int Int Int Int Bool Int Int Int Int Int Int) Bool)
(assert (forall ((A Int)
         (B Int)
         (C Int)
         (D Int)
         (E Int)
         (F Int)
         (G Int)
         (H Int)
         (I Int)
         (J Int)
         (K Int)
         (L Int)
         (M Int)
         (N Int)
         (O Int)
         (P Int)
         (Q Int)
         (R Int)
         (S Int)
         (T Int)
         (U Int)
         (V Int)
         (W Int)
         (X Int)
         (Y Int)
         (Z Int)
         (A1 Int)
         (B1 Int)
         (C1 Int)
         (D1 Int)
         (E1 Int)
         (F1 Int)
         (G1 Int)
         (H1 Int)
         (I1 Int)
         (J1 Int)
         (K1 Int)
         (L1 Int)
         (M1 Int)
         (N1 Int)
         (O1 Bool))
  (let ((a!1 (and (not (<= L1 (+ 4 N1))) (not (<= L1 M1))))
        (a!2 (and (not (<= J1 (+ 1 K1))) (not (<= J1 L1))))
        (a!3 (and (not (<= V (+ 1 W))) (not (<= V Y))))
        (a!4 (not (and (= T U) (= S Z) (= R A1) (= Q X))))
        (a!5 (not (and (= P R) (= O T) (= N F1) (= M Q) (= L S))))
        (a!7 (not (and (not (= K 0)) (Proc3 C1 F1 B1 G1 O1 J I H G F E)))))
  (let ((a!6 (or (<= 0 D1)
                 (not (and (= A1 D1) (= Z G1) (= Y C1) (= X B1)))
                 (not (= W Y))
                 (not a!3)
                 (not (Proc2 V F1 X Z O1 W U))
                 a!4
                 a!5))
        (a!8 (or (not (= E 1)) (not (and (= T G) (= S E) (= R D) (= Q F))) a!5))
        (a!9 (or (not (and (= A1 D1) (= Z E) (= Y G) (= X F)))
                 (not (= W Y))
                 (not a!3)
                 (not (Proc2 V F1 X Z O1 W U))
                 a!4
                 a!5))
        (a!10 (or (not (Proc4 G F1 F E O1 C))
                  (not (= B (- 1073741810)))
                  (not (and (= A1 B) (= Z E) (= Y G) (= X F)))
                  (not (= W Y))
                  (not a!3)
                  (not (Proc2 V F1 X Z O1 W U))
                  a!4
                  a!5)))
  (let ((a!11 (or (not (<= 0 D1))
                  (= K 0)
                  a!7
                  (and a!8 (or (= E 1) (= K 0) (and a!9 a!10))))))
  (let ((a!12 (not (or (not O1)
                       (not (= N1 M1))
                       (not a!1)
                       (not (= K1 L1))
                       (not a!2)
                       (not (Proc0 J1 I1 H1 G1 O1 K1 F1))
                       (not (Proc1 J1 F1 H1 G1 O1 E1 12 0 34 256 0 N1 D1 C1 B1))
                       (and a!6 a!11)))))
    (=> a!12 (Proc5 M1 I1 H1 G1 O1 E1 A P O N M L))))))))
(assert (forall ((A Int)
         (B Int)
         (C Int)
         (D Int)
         (E Int)
         (F Int)
         (G Int)
         (H Int)
         (I Int)
         (J Int)
         (K Int)
         (L Int)
         (M Int)
         (N Int)
         (O Int)
         (P Int)
         (Q Int)
         (R Int)
         (S Int)
         (T Int)
         (U Int)
         (V Int)
         (W Int)
         (X Int)
         (Y Int)
         (Z Int)
         (A1 Int)
         (B1 Int)
         (C1 Int)
         (D1 Int)
         (E1 Int)
         (F1 Int)
         (G1 Int)
         (H1 Int)
         (I1 Int)
         (J1 Int)
         (K1 Int)
         (L1 Int)
         (M1 Int)
         (N1 Int)
         (O1 Bool)
         (P1 Int)
         (Q1 Int))
  (let ((a!1 (and (not (<= N1 (+ 1 Q1))) (not (<= N1 P1))))
        (a!2 (and (not (<= L1 (+ 1 M1))) (not (<= L1 N1))))
        (a!3 (and (not (<= J1 (+ 1 K1))) (not (<= J1 L1))))
        (a!4 (and (not (<= H1 (+ 1 I1))) (not (<= H1 J1))))
        (a!5 (and (not (<= F1 (+ 1 G1))) (not (<= F1 H1))))
        (a!6 (and (not (<= D1 (+ 1 E1))) (not (<= D1 F1))))
        (a!7 (and (not (<= B1 (+ 1 C1))) (not (<= B1 D1))))
        (a!8 (and (not (<= Z (+ 1 A1))) (not (<= Z B1))))
        (a!9 (and (not (<= X (+ 1 Y))) (not (<= X Z))))
        (a!10 (and (not (<= V (+ 1 W))) (not (<= V X))))
        (a!11 (and (not (<= T (+ 1 U))) (not (<= T V)))))
  (let ((a!12 (or (not O1)
                  (not (= Q1 P1))
                  (not a!1)
                  (not (= M1 N1))
                  (not a!2)
                  (not (= K1 L1))
                  (not a!3)
                  (not (= I1 J1))
                  (not a!4)
                  (not (= G1 H1))
                  (not a!5)
                  (not (= E1 F1))
                  (not a!6)
                  (not (= C1 D1))
                  (not a!7)
                  (not (= A1 B1))
                  (not a!8)
                  (not (= Y Z))
                  (not a!9)
                  (not (= W X))
                  (not a!10)
                  (not (= U V))
                  (not a!11)
                  (= S 0)
                  (= R 0)
                  (= Q 0)
                  (= P 0)
                  (= O 0)
                  (= N 0)
                  (= M 0)
                  (= L 0)
                  (= K 0)
                  (= J 0)
                  (= I 0)
                  (= H 0)
                  (= G 0)
                  (not (and (= F 0) (= E T))))))
    (=> (not a!12) (Proc6 P1 D C B O1 S A F E))))))
(assert (forall ((A Int)
         (B Int)
         (C Int)
         (D Int)
         (E Int)
         (F Int)
         (G Int)
         (H Int)
         (I Int)
         (J Int)
         (K Int)
         (L Int)
         (M Int)
         (N Int)
         (O Int)
         (P Int)
         (Q Int)
         (O1 Bool))
  (let ((a!1 (and (not (<= O (+ 1 Q))) (not (<= O P))))
        (a!2 (not (and (= F H) (= E J) (= D K) (= C I)))))
  (let ((a!3 (or (not (and (= I 1) (= H G))) a!2))
        (a!4 (and (or (not (= H 0)) a!2) (or (not (= H B)) a!2))))
  (let ((a!5 (or (not O1)
                 (not (= Q P))
                 (not a!1)
                 (not (Proc7 O N M L O1 Q K J I))
                 (and a!3 (or (= I 1) a!4)))))
    (=> (not a!5) (Proc3 P N M L O1 A B F E D C)))))))
(assert (forall ((A Int)
         (B Int)
         (C Int)
         (D Int)
         (E Int)
         (F Int)
         (G Int)
         (H Int)
         (I Int)
         (J Int)
         (K Int)
         (L Int)
         (M Int)
         (N Int)
         (O Int)
         (P Int)
         (Q Int)
         (R Int)
         (S Int)
         (T Int)
         (U Int)
         (V Int)
         (O1 Bool))
  (let ((a!1 (and (not (<= R (+ 1 T))) (not (<= R S))))
        (a!2 (not (Proc8 R Q P O O1 T U N)))
        (a!3 (not (and (= M U) (= L R) (= K N))))
        (a!4 (not (and (= J (- 1073741823)) (= U J))))
        (a!5 (not (and (= I (- 1073741670)) (= U I))))
        (a!6 (not (and (= H (- 1073741771)) (= U H))))
        (a!7 (not (and (= G (- 1073741824)) (= U G)))))
  (let ((a!8 (and (or (= V 0) (not (= U 0)) (not (= T S)) (not a!1) a!2 a!3)
                  (or (= V 0) a!4 (not (= T S)) (not a!1) a!2 a!3)
                  (or (= V 0) a!5 (not (= T S)) (not a!1) a!2 a!3)
                  (or (= V 0) a!6 (not (= T S)) (not a!1) a!2 a!3)
                  (or (= V 0) a!7 (not (= T S)) (not a!1) a!2 a!3))))
    (=> (not (or (not O1) a!8)) (Proc1 S Q P O O1 F E D C B A V M L K))))))
(assert (forall ((A Int) (B Int) (C Int) (D Int) (E Int) (O1 Bool))
  (=> O1 (Proc4 E D C B O1 A))))
(assert (forall ((A Int)
         (B Int)
         (C Int)
         (D Int)
         (E Int)
         (F Int)
         (G Int)
         (H Int)
         (I Int)
         (J Int)
         (O1 Bool))
  (let ((a!1 (and (not (<= H (+ 1 J))) (not (<= H I)))))
  (let ((a!2 (or (not O1)
                 (not (= J I))
                 (not a!1)
                 (not (Proc9 H G F E O1 J D))
                 (not (and (= C H) (= B D))))))
    (=> (not a!2) (Proc10 I G F E O1 A C B))))))
(assert (forall ((A Int) (B Int) (C Int) (D Int) (E Int) (F Int) (O1 Bool))
  (let ((a!1 (not (or (not O1) (not (= F 1))))))
    (=> a!1 (Proc0 E D C B O1 A F)))))
(assert (forall ((A Int)
         (B Int)
         (C Int)
         (D Int)
         (E Int)
         (F Int)
         (G Int)
         (H Int)
         (O1 Bool))
  (let ((a!1 (and (not (<= F (+ 1 H))) (not (<= F G)))))
  (let ((a!2 (not (or (not O1)
                      (not (= H G))
                      (not a!1)
                      (not (Proc11 F E D C O1 H))
                      (not (= B F))))))
    (=> a!2 (Proc2 G E D C O1 A B))))))
(assert (forall ((A Int) (B Int) (C Int) (D Int) (E Int) (F Int) (O1 Bool))
  (let ((a!1 (not (or (not O1) (not (= F 1))))))
    (=> a!1 (Proc9 E D C B O1 A F)))))
(assert (forall ((A Int) (B Int) (C Int) (D Int) (E Int) (O1 Bool))
  (=> false (Proc11 E D C B O1 A))))
(assert (forall ((A Int)
         (B Int)
         (C Int)
         (D Int)
         (E Int)
         (F Int)
         (G Int)
         (H Int)
         (I Int)
         (J Int)
         (K Int)
         (L Int)
         (M Int)
         (O1 Bool))
  (let ((a!1 (not (and (= G H) (= F L) (= E J))))
        (a!5 (not (and (not (= A 1)) (= L B) (= J A) (= H D)))))
  (let ((a!2 (or (= M 1) (not (= L K)) (not (and (= J I) (= H 0))) a!1))
        (a!3 (or (= D 0) (not (= L K)) (not (and (= J I) (= H 0))) a!1))
        (a!4 (or (not (and (= A 1) (= L B) (= J A) (= H D))) a!1)))
  (let ((a!6 (and a!3
                  (or (not (= D 0))
                      (not (Proc10 K M D I O1 C B A))
                      (and a!4 (or a!5 a!1))))))
  (let ((a!7 (and a!2 (or (not (= M 1)) a!6))))
    (=> (not (or (not O1) a!7)) (Proc7 K M D I O1 C G F E))))))))
(assert (forall ((A Int)
         (B Int)
         (C Int)
         (D Int)
         (E Int)
         (F Int)
         (G Int)
         (H Int)
         (O1 Bool))
  (let ((a!1 (not (and (not (= H 1)) (= G F))))
        (a!2 (not (and (not (= D 0)) (= G F)))))
  (let ((a!3 (and (or a!2 (not (= E G)))
                  (or (not (= D 0)) (not (= G 1)) (not (= E G))))))
  (let ((a!4 (and (or a!1 (not (= E G))) (or (not (= H 1)) a!3))))
    (=> (not (or (not O1) a!4)) (Proc8 C H F B O1 A D E)))))))
(assert (forall ((A Int) (B Int) (C Int) (D Int) (O1 Bool)) (=> O1 (Proc12 D C B A O1))))
(assert (forall ((A Int) (B Int) (C Int) (D Int) (O1 Bool)) (=> O1 (Proc13 D C B A O1))))
(assert (forall ((A Int) (B Int) (C Int) (D Int) (O1 Bool)) (=> O1 (Proc14 D C B A O1))))
(assert (forall ((A Int) (B Int) (C Int) (D Int) (O1 Bool)) (=> O1 (Proc15 D C B A O1))))
(assert (forall ((A Int) (B Int) (C Int) (D Int) (O1 Bool)) (=> O1 (Proc16 D C B A O1))))
(assert (forall ((A Int) (B Int) (C Int) (D Int) (E Int) (F Int) (G Int) (O1 Bool))
  (let ((a!1 (or (not O1) (not (and (= G 0) (= F 0) (= E 0))))))
    (=> (not a!1) (Proc17 D C B A O1 G F E)))))
(assert (forall ((A Int)
         (B Int)
         (C Int)
         (D Int)
         (E Int)
         (F Int)
         (G Int)
         (H Int)
         (I Int)
         (J Int)
         (K Int)
         (L Int)
         (M Int)
         (N Int)
         (O Int)
         (P Int)
         (Q Int)
         (R Int)
         (S Int)
         (T Int)
         (O1 Bool)
         (R1 Bool)
         (S1 Bool)
         (T1 Bool))
  (let ((a!1 (not (and (not (<= T 0)) (Proc18 T S R Q T1 P))))
        (a!2 (not (and (= F H) (= E J) (= D K) (= C I) (= R1 S1) (= B L)))))
  (let ((a!3 (or (= I 0) (not (and (= H G) (not S1))) a!2))
        (a!4 (or (not (and (= I 0) (= O1 T1)))
                 (not (and (= H A) (= S1 O1)))
                 a!2)))
  (let ((a!5 (and (or (= I 1) (and a!3 a!4)) (or (not (= I 1)) (and a!3 a!4)))))
  (let ((a!6 (not (or (not T1)
                      a!1
                      (not (Proc17 P S R Q T1 O N M))
                      (not (Proc16 P N O M T1))
                      (not (Proc15 P N O M T1))
                      (not (Proc14 P N O M T1))
                      (not (Proc13 P N O M T1))
                      (not (Proc12 P N O M T1))
                      (not (Proc19 P N O M T1 L K J I))
                      a!5))))
    (=> a!6 (Proc20 T S R Q T1 F E D C R1 B))))))))
(assert (forall ((A Int)
         (B Int)
         (C Int)
         (D Int)
         (E Int)
         (F Int)
         (G Int)
         (H Int)
         (I Int)
         (J Int)
         (K Int)
         (L Int)
         (M Int)
         (N Int)
         (O Int)
         (P Int)
         (Q Int)
         (R Int)
         (O1 Bool))
  (let ((a!1 (not (and (= E G) (= D K) (= C J) (= B I) (= A H)))))
  (let ((a!2 (or (not (and (= H 1) (= G F))) a!1)))
  (let ((a!3 (and a!2 (or (= H 1) (not (Proc22 K J I H O1)) (not (= G L)) a!1))))
  (let ((a!4 (not (or (not O1)
                      (not (Proc21 R Q P O O1))
                      (not (Proc5 R Q P O O1 N M L K J I H))
                      a!3))))
    (=> a!4 (Proc23 R Q P O O1 N M E D C B A))))))))
(assert (forall ((A Int)
         (B Int)
         (C Int)
         (D Int)
         (E Int)
         (F Int)
         (G Int)
         (H Int)
         (I Int)
         (J Int)
         (K Int)
         (L Int)
         (M Int)
         (N Int)
         (O Int)
         (P Int)
         (Q Int)
         (R Int)
         (S Int)
         (T Int)
         (U Int)
         (V Int)
         (O1 Bool))
  (let ((a!1 (and (not (<= T (+ 12 V))) (not (<= T U))))
        (a!2 (not (and (= E I) (= D H) (= C G) (= B F)))))
  (let ((a!3 (and (or (not (= F 1)) a!2)
                  (or (= F 1)
                      (not (<= 0 J))
                      (not (= A 1))
                      (= A 0)
                      (not (Proc24 I H G F O1))
                      a!2))))
  (let ((a!4 (not (or (not O1)
                      (not (= V U))
                      (not a!1)
                      (not (Proc6 T S R Q O1 P V O N))
                      (not (<= 0 O))
                      (not (= M 1))
                      (= M 0)
                      (not (Proc23 N S R Q O1 L K J I H G F))
                      a!3))))
    (=> a!4 (Proc19 U S R Q O1 E D C B)))))))
(assert (forall ((A Int) (B Int) (C Int) (D Int) (O1 Bool)) (=> O1 (Proc21 D C B A O1))))
(assert (forall ((A Int) (B Int) (C Int) (D Int) (O1 Bool)) (=> O1 (Proc22 D C B A O1))))
(assert (forall ((A Int) (B Int) (C Int) (D Int) (O1 Bool)) (=> O1 (Proc24 D C B A O1))))
(assert (forall ((A Int)
         (B Int)
         (C Int)
         (D Int)
         (E Int)
         (F Int)
         (G Int)
         (H Int)
         (I Int)
         (J Int)
         (K Int)
         (L Int)
         (M Int)
         (N Int)
         (O Int)
         (P Int)
         (Q Int)
         (R Int)
         (S Int)
         (T Int)
         (U Int)
         (V Int)
         (W Int)
         (X Int)
         (Y Int)
         (Z Int)
         (A1 Int)
         (B1 Int)
         (C1 Int)
         (D1 Int)
         (E1 Int)
         (F1 Int)
         (G1 Int)
         (H1 Int)
         (I1 Int)
         (J1 Int)
         (K1 Int)
         (L1 Int)
         (M1 Int)
         (N1 Int)
         (O1 Bool)
         (P1 Int)
         (Q1 Int)
         (U1 Int)
         (V1 Int)
         (W1 Int)
         (X1 Int)
         (Y1 Int)
         (Z1 Int)
         (A2 Int)
         (B2 Int)
         (C2 Int)
         (D2 Int)
         (E2 Int))
  (let ((a!1 (and (= E2 D2)
                  (not (<= C2 (+ 4 E2)))
                  (not (<= C2 D2))
                  (= B2 C2)
                  (not (<= A2 (+ 332 B2)))
                  (not (<= A2 C2))
                  (= Z1 A2)
                  (not (<= Y1 (+ 4 Z1)))))
        (a!2 (and (not (<= Y1 A2))
                  (= X1 Y1)
                  (not (<= W1 (+ 536 X1)))
                  (not (<= W1 Y1))
                  (= V1 W1)
                  (not (<= U1 (+ 240 V1)))
                  (not (<= U1 W1))
                  (= Q1 U1)
                  (not (<= P1 (+ 240 Q1)))
                  (not (<= P1 U1))
                  (= N1 P1)
                  (not (<= M1 (+ 240 N1)))
                  (not (<= M1 P1))
                  (= L1 M1)
                  (not (<= K1 (+ 4 L1)))
                  (not (<= K1 M1))
                  (= J1 K1)
                  (not (<= I1 (+ 536 J1)))
                  (not (<= I1 K1))
                  (= H1 I1)
                  (not (<= G1 (+ 332 H1)))
                  (not (<= G1 I1))
                  (= F1 G1)
                  (not (<= E1 (+ 240 F1)))
                  (not (<= E1 G1))
                  (= D1 E1)
                  (not (<= C1 (+ 240 D1)))
                  (not (<= C1 E1))
                  (= B1 C1)
                  (not (<= A1 (+ 332 B1)))
                  (not (<= A1 C1))
                  (= Z A1)
                  (not (<= Y (+ 4 Z)))
                  (not (<= Y A1))
                  (= X Y)
                  (not (<= W (+ 68 X)))
                  (not (<= W Y))
                  (= V W)
                  (not (<= U (+ 240 V)))
                  (not (<= U W))
                  (= T U)
                  (not (<= S (+ 240 T)))
                  (not (<= S U))
                  (= R S)
                  (not (<= Q (+ 240 R)))
                  (not (<= Q S))
                  (= P Q)
                  (not (<= O (+ 240 P)))
                  (not (<= O Q))
                  (= N O)
                  (not (<= M (+ 240 N)))
                  (not (<= M O))
                  (= L M)
                  (not (<= K (+ 40 L)))
                  (not (<= K M))
                  (= J K)
                  (not (<= I (+ 332 J)))
                  (not (<= I K))
                  (= H I)
                  (not (<= G (+ 4 H)))
                  (not (<= G I))
                  (= F G)
                  (not (<= E (+ 40 F)))
                  (not (<= E G)))))
  (let ((a!3 (not (or (not O1) (not a!1) (not a!2) (not (= D E))))))
    (=> a!3 (Proc18 D2 C B A O1 D))))))
(assert (forall ((A Int)
         (B Int)
         (C Int)
         (D Int)
         (E Int)
         (F Int)
         (G Int)
         (H Int)
         (I Int)
         (J Int)
         (K Int)
         (L Int)
         (M Int)
         (N Int)
         (O1 Bool)
         (R1 Bool)
         (S1 Bool))
  (let ((a!1 (or (not S1)
                 (not (and (Proc20 N M L K true J I H G R1 F) (not R1))))))
    (=> (not a!1) (Proc25 N M L K S1 E O1 D C B A)))))
(assert (let ((a!1 (exists ((V0 Int)
                    (V1 Int)
                    (V2 Int)
                    (V3 Int)
                    (V4 Bool)
                    (V5 Int)
                    (V6 Bool)
                    (V7 Int)
                    (V8 Int)
                    (V9 Int)
                    (V10 Int))
             (not (=> (and (Proc25 V0 V1 V2 V3 V4 V5 V6 V7 V8 V9 V10)
                           (not false))
                      false)))))
  (not a!1)))

(check-sat)
